p cnf 198 561
   1   2   3   0
   4   5   6   0
   7   8   9   0
  10  11  12   0
  13  14  15   0
  16  17  18   0
  19  20  21   0
  22  23  24   0
  25  26  27   0
  28  29  30   0
  31  32  33   0
  34  35  36   0
  37  38  39   0
  40  41  42   0
  43  44  45   0
  46  47  48   0
  49  50  51   0
  52  53  54   0
  55  56  57   0
  58  59  60   0
  61  62  63   0
  64  65  66   0
  67  68  69   0
  70  71  72   0
  73  74  75   0
  76  77  78   0
  79  80  81   0
  82  83  84   0
  85  86  87   0
  88  89  90   0
  91  92  93   0
  94  95  96   0
  97  98  99   0
 100 101 102   0
 103 104 105   0
 106 107 108   0
 109 110 111   0
 112 113 114   0
 115 116 117   0
 118 119 120   0
 121 122 123   0
 124 125 126   0
 127 128 129   0
 130 131 132   0
 133 134 135   0
 136 137 138   0
 139 140 141   0
 142 143 144   0
 145 146 147   0
 148 149 150   0
 151 152 153   0
 154 155 156   0
 157 158 159   0
 160 161 162   0
 163 164 165   0
 166 167 168   0
 169 170 171   0
 172 173 174   0
 175 176 177   0
 178 179 180   0
 181 182 183   0
 184 185 186   0
 187 188 189   0
 190 191 192   0
 193 194 195   0
 196 197 198   0
  -1  -37  0
  -2  -38  0
  -3  -39  0
  -1  -58  0
  -2  -59  0
  -3  -60  0
  -1 -136  0
  -2 -137  0
  -3 -138  0
  -1 -157  0
  -2 -158  0
  -3 -159  0
  -1 -163  0
  -2 -164  0
  -3 -165  0
  -4  -13  0
  -5  -14  0
  -6  -15  0
  -4 -133  0
  -5 -134  0
  -6 -135  0
  -4 -136  0
  -5 -137  0
  -6 -138  0
  -4 -145  0
  -5 -146  0
  -6 -147  0
  -4 -151  0
  -5 -152  0
  -6 -153  0
  -7  -16  0
  -8  -17  0
  -9  -18  0
  -7  -58  0
  -8  -59  0
  -9  -60  0
  -7  -61  0
  -8  -62  0
  -9  -63  0
  -7  -76  0
  -8  -77  0
  -9  -78  0
  -7 -151  0
  -8 -152  0
  -9 -153  0
 -10  -49  0
 -11  -50  0
 -12  -51  0
 -10  -73  0
 -11  -74  0
 -12  -75  0
 -10  -76  0
 -11  -77  0
 -12  -78  0
 -10 -121  0
 -11 -122  0
 -12 -123  0
 -10 -124  0
 -11 -125  0
 -12 -126  0
 -13  -34  0
 -14  -35  0
 -15  -36  0
 -13  -55  0
 -14  -56  0
 -15  -57  0
 -13 -100  0
 -14 -101  0
 -15 -102  0
 -13 -172  0
 -14 -173  0
 -15 -174  0
 -16  -52  0
 -17  -53  0
 -18  -54  0
 -16 -100  0
 -17 -101  0
 -18 -102  0
 -16 -178  0
 -17 -179  0
 -18 -180  0
 -16 -193  0
 -17 -194  0
 -18 -195  0
 -19  -55  0
 -20  -56  0
 -21  -57  0
 -19  -76  0
 -20  -77  0
 -21  -78  0
 -19 -154  0
 -20 -155  0
 -21 -156  0
 -19 -175  0
 -20 -176  0
 -21 -177  0
 -19 -181  0
 -20 -182  0
 -21 -183  0
 -22  -31  0
 -23  -32  0
 -24  -33  0
 -22 -151  0
 -23 -152  0
 -24 -153  0
 -22 -154  0
 -23 -155  0
 -24 -156  0
 -22 -163  0
 -23 -164  0
 -24 -165  0
 -22 -169  0
 -23 -170  0
 -24 -171  0
 -25  -34  0
 -26  -35  0
 -27  -36  0
 -25  -76  0
 -26  -77  0
 -27  -78  0
 -25  -79  0
 -26  -80  0
 -27  -81  0
 -25  -94  0
 -26  -95  0
 -27  -96  0
 -25 -169  0
 -26 -170  0
 -27 -171  0
 -28  -67  0
 -29  -68  0
 -30  -69  0
 -28  -91  0
 -29  -92  0
 -30  -93  0
 -28  -94  0
 -29  -95  0
 -30  -96  0
 -28 -139  0
 -29 -140  0
 -30 -141  0
 -28 -142  0
 -29 -143  0
 -30 -144  0
 -31  -52  0
 -32  -53  0
 -33  -54  0
 -31  -73  0
 -32  -74  0
 -33  -75  0
 -31 -118  0
 -32 -119  0
 -33 -120  0
 -31 -190  0
 -32 -191  0
 -33 -192  0
 -34  -70  0
 -35  -71  0
 -36  -72  0
 -34 -118  0
 -35 -119  0
 -36 -120  0
 -34 -196  0
 -35 -197  0
 -36 -198  0
 -37  -73  0
 -38  -74  0
 -39  -75  0
 -37  -94  0
 -38  -95  0
 -39  -96  0
 -37 -172  0
 -38 -173  0
 -39 -174  0
 -37 -193  0
 -38 -194  0
 -39 -195  0
 -40  -49  0
 -41  -50  0
 -42  -51  0
 -40 -169  0
 -41 -170  0
 -42 -171  0
 -40 -172  0
 -41 -173  0
 -42 -174  0
 -40 -181  0
 -41 -182  0
 -42 -183  0
 -40 -187  0
 -41 -188  0
 -42 -189  0
 -43  -52  0
 -44  -53  0
 -45  -54  0
 -43  -94  0
 -44  -95  0
 -45  -96  0
 -43  -97  0
 -44  -98  0
 -45  -99  0
 -43 -112  0
 -44 -113  0
 -45 -114  0
 -43 -187  0
 -44 -188  0
 -45 -189  0
 -46  -85  0
 -47  -86  0
 -48  -87  0
 -46 -109  0
 -47 -110  0
 -48 -111  0
 -46 -112  0
 -47 -113  0
 -48 -114  0
 -46 -157  0
 -47 -158  0
 -48 -159  0
 -46 -160  0
 -47 -161  0
 -48 -162  0
 -49  -70  0
 -50  -71  0
 -51  -72  0
 -49  -91  0
 -50  -92  0
 -51  -93  0
 -49 -136  0
 -50 -137  0
 -51 -138  0
 -52  -88  0
 -53  -89  0
 -54  -90  0
 -52 -136  0
 -53 -137  0
 -54 -138  0
 -55  -91  0
 -56  -92  0
 -57  -93  0
 -55 -112  0
 -56 -113  0
 -57 -114  0
 -55 -190  0
 -56 -191  0
 -57 -192  0
 -58  -67  0
 -59  -68  0
 -60  -69  0
 -58 -187  0
 -59 -188  0
 -60 -189  0
 -58 -190  0
 -59 -191  0
 -60 -192  0
 -61  -70  0
 -62  -71  0
 -63  -72  0
 -61 -112  0
 -62 -113  0
 -63 -114  0
 -61 -115  0
 -62 -116  0
 -63 -117  0
 -61 -130  0
 -62 -131  0
 -63 -132  0
 -64 -103  0
 -65 -104  0
 -66 -105  0
 -64 -127  0
 -65 -128  0
 -66 -129  0
 -64 -130  0
 -65 -131  0
 -66 -132  0
 -64 -175  0
 -65 -176  0
 -66 -177  0
 -64 -178  0
 -65 -179  0
 -66 -180  0
 -67  -88  0
 -68  -89  0
 -69  -90  0
 -67 -109  0
 -68 -110  0
 -69 -111  0
 -67 -154  0
 -68 -155  0
 -69 -156  0
 -70 -106  0
 -71 -107  0
 -72 -108  0
 -70 -154  0
 -71 -155  0
 -72 -156  0
 -73 -109  0
 -74 -110  0
 -75 -111  0
 -73 -130  0
 -74 -131  0
 -75 -132  0
 -76  -85  0
 -77  -86  0
 -78  -87  0
 -79  -88  0
 -80  -89  0
 -81  -90  0
 -79 -130  0
 -80 -131  0
 -81 -132  0
 -79 -133  0
 -80 -134  0
 -81 -135  0
 -79 -148  0
 -80 -149  0
 -81 -150  0
 -82 -121  0
 -83 -122  0
 -84 -123  0
 -82 -145  0
 -83 -146  0
 -84 -147  0
 -82 -148  0
 -83 -149  0
 -84 -150  0
 -82 -193  0
 -83 -194  0
 -84 -195  0
 -82 -196  0
 -83 -197  0
 -84 -198  0
 -85 -106  0
 -86 -107  0
 -87 -108  0
 -85 -127  0
 -86 -128  0
 -87 -129  0
 -85 -172  0
 -86 -173  0
 -87 -174  0
 -88 -124  0
 -89 -125  0
 -90 -126  0
 -88 -172  0
 -89 -173  0
 -90 -174  0
 -91 -127  0
 -92 -128  0
 -93 -129  0
 -91 -148  0
 -92 -149  0
 -93 -150  0
 -94 -103  0
 -95 -104  0
 -96 -105  0
 -97 -106  0
 -98 -107  0
 -99 -108  0
 -97 -148  0
 -98 -149  0
 -99 -150  0
 -97 -151  0
 -98 -152  0
 -99 -153  0
 -97 -166  0
 -98 -167  0
 -99 -168  0
-100 -139  0
-101 -140  0
-102 -141  0
-100 -163  0
-101 -164  0
-102 -165  0
-100 -166  0
-101 -167  0
-102 -168  0
-103 -124  0
-104 -125  0
-105 -126  0
-103 -145  0
-104 -146  0
-105 -147  0
-103 -190  0
-104 -191  0
-105 -192  0
-106 -142  0
-107 -143  0
-108 -144  0
-106 -190  0
-107 -191  0
-108 -192  0
-109 -145  0
-110 -146  0
-111 -147  0
-109 -166  0
-110 -167  0
-111 -168  0
-112 -121  0
-113 -122  0
-114 -123  0
-115 -124  0
-116 -125  0
-117 -126  0
-115 -166  0
-116 -167  0
-117 -168  0
-115 -169  0
-116 -170  0
-117 -171  0
-115 -184  0
-116 -185  0
-117 -186  0
-118 -157  0
-119 -158  0
-120 -159  0
-118 -181  0
-119 -182  0
-120 -183  0
-118 -184  0
-119 -185  0
-120 -186  0
-121 -142  0
-122 -143  0
-123 -144  0
-121 -163  0
-122 -164  0
-123 -165  0
-124 -160  0
-125 -161  0
-126 -162  0
-127 -163  0
-128 -164  0
-129 -165  0
-127 -184  0
-128 -185  0
-129 -186  0
-130 -139  0
-131 -140  0
-132 -141  0
-133 -142  0
-134 -143  0
-135 -144  0
-133 -184  0
-134 -185  0
-135 -186  0
-133 -187  0
-134 -188  0
-135 -189  0
-136 -175  0
-137 -176  0
-138 -177  0
-139 -160  0
-140 -161  0
-141 -162  0
-139 -181  0
-140 -182  0
-141 -183  0
-142 -178  0
-143 -179  0
-144 -180  0
-145 -181  0
-146 -182  0
-147 -183  0
-148 -157  0
-149 -158  0
-150 -159  0
-151 -160  0
-152 -161  0
-153 -162  0
-154 -193  0
-155 -194  0
-156 -195  0
-157 -178  0
-158 -179  0
-159 -180  0
-160 -196  0
-161 -197  0
-162 -198  0
-166 -175  0
-167 -176  0
-168 -177  0
-169 -178  0
-170 -179  0
-171 -180  0
-175 -196  0
-176 -197  0
-177 -198  0
-184 -193  0
-185 -194  0
-186 -195  0
-187 -196  0
-188 -197  0
-189 -198  0
